Reading model...
...model read.
creating competitive generators file...
...competitive generators recorded.
Loading data...
.. real-time data read.
Compiling instance...
...instance created.
Creating Offer Mitigation (model will solve as dispatch if TRUE)...
NOTE: storage offers will not be mitigated
...storage offer mitigation file created
Converting model to MPEC...
...converted
NOTE: initial MIP solve with only storage competitive to get feasible solution
Solving...

Welcome to IBM(R) ILOG(R) CPLEX(R) Interactive Optimizer 12.9.0.0
  with Simplex, Mixed Integer & Barrier Optimizers
5725-A06 5725-A29 5724-Y48 5724-Y49 5724-Y54 5724-Y55 5655-Y21
Copyright IBM Corp. 1988, 2019.  All Rights Reserved.

Type 'help' for a list of available commands.
Type 'help' followed by a command name for more
information on commands.

CPLEX> Logfile 'cplex.log' closed.
Logfile 'C:\Users\llavin\Desktop\test85\logs\tmpp3fuqkpm.cplex.log' open.
CPLEX> New value for parallel optimization mode: -1
CPLEX> New value for mixed integer optimality gap tolerance: 0.05
CPLEX> New value for deterministic time limit in ticks: 100000
CPLEX> Problem 'C:\Users\llavin\Desktop\test85\logs\tmp4hxcee8_.pyomo.lp' read.
Read time = 0.52 sec. (27.84 ticks)
CPLEX> Problem name         : C:\Users\llavin\Desktop\test85\logs\tmp4hxcee8_.pyomo.lp
Objective sense      : Maximize
Variables            :  107779  [Nneg: 1,  Box: 44054,  Free: 8928,
                                 Binary: 54796]
Objective nonzeros   :   17522
Linear constraints   :  246995  [Less: 82866,  Greater: 118424,  Equal: 45705]
  Nonzeros           :  580829
  RHS nonzeros       :  134641

Variables            : Min LB: -5000.000        Max UB: 1000000.       
Objective nonzeros   : Min   : 0.1944444        Max   : 2500.000       
Linear constraints   :
  Nonzeros           : Min   : 0.1944444        Max   : 1000000.       
  RHS nonzeros       : Min   : 0.1944444        Max   : 1000000.       
CPLEX> CPXPARAM_Parallel                                -1
CPXPARAM_DetTimeLimit                            100000
CPXPARAM_MIP_Tolerances_MIPGap                   0.050000000000000003
Tried aggregator 3 times.
MIP Presolve eliminated 181888 rows and 41609 columns.
MIP Presolve added 6048 rows and 0 columns.
MIP Presolve modified 48954 coefficients.
Aggregator did 25861 substitutions.
Reduced MIP has 45294 rows, 38677 columns, and 125544 nonzeros.
Reduced MIP has 15228 binaries, 0 generals, 0 SOSs, and 0 indicators.
Presolve time = 0.59 sec. (333.52 ticks)
Probing fixed 765 vars, tightened 6857 bounds.
Probing time = 0.38 sec. (13.00 ticks)
Tried aggregator 2 times.
MIP Presolve eliminated 1722 rows and 1530 columns.
MIP Presolve modified 5508 coefficients.
Aggregator did 48 substitutions.
Reduced MIP has 43524 rows, 37099 columns, and 120426 nonzeros.
Reduced MIP has 14463 binaries, 0 generals, 0 SOSs, and 0 indicators.
Presolve time = 0.22 sec. (206.68 ticks)
Probing fixed 0 vars, tightened 170 bounds.
Probing time = 0.48 sec. (13.92 ticks)
Clique table members: 79233.
MIP emphasis: balance optimality and feasibility.
MIP search method: dynamic search.
Parallel mode: opportunistic, using up to 32 threads.
Root relaxation solution time = 0.80 sec. (1635.64 ticks)

        Nodes                                         Cuts/
   Node  Left     Objective  IInf  Best Integer    Best Bound    ItCnt     Gap

      0     0        0.0000    15                      0.0000     7756         
*     0+    0                            0.0000        0.0000             0.00%
      0     0        cutoff              0.0000        0.0000     7756    0.00%
Elapsed time = 3.13 sec. (2587.66 ticks, tree = 0.01 MB, solutions = 1)

Root node processing (before b&c):
  Real time             =    3.16 sec. (2591.45 ticks)
Parallel b&c, 32 threads:
  Real time             =    0.00 sec. (0.00 ticks)
  Sync time (average)   =    0.00 sec.
  Wait time (average)   =    0.00 sec.
                          ------------
Total (root+branch&cut) =    3.16 sec. (2591.45 ticks)

Solution pool: 1 solution saved.

MIP - Integer optimal solution:  Objective =  0.0000000000e+00
Solution time =    3.17 sec.  Iterations = 7756  Nodes = 0
Deterministic time = 2591.76 ticks  (817.07 ticks/sec)

CPLEX> Incumbent solution written to file 'C:\Users\llavin\Desktop\test85\logs\tmpujn8e13y.cplex.sol'.
CPLEX> NOTE: no warmstart specified for MIP iteration, default behavior is true
NOTE: resolving with all competitive generators using storage-only solution to warmstart
Solving...

Welcome to IBM(R) ILOG(R) CPLEX(R) Interactive Optimizer 12.9.0.0
  with Simplex, Mixed Integer & Barrier Optimizers
5725-A06 5725-A29 5724-Y48 5724-Y49 5724-Y54 5724-Y55 5655-Y21
Copyright IBM Corp. 1988, 2019.  All Rights Reserved.

Type 'help' for a list of available commands.
Type 'help' followed by a command name for more
information on commands.

CPLEX> Logfile 'cplex.log' closed.
Logfile 'C:\Users\llavin\Desktop\test85\logs\tmpoejdcs9o.cplex.log' open.
CPLEX> New value for parallel optimization mode: -1
CPLEX> New value for mixed integer optimality gap tolerance: 0.05
CPLEX> New value for deterministic time limit in ticks: 100000
CPLEX> Problem 'C:\Users\llavin\Desktop\test85\logs\tmp5jh0jvtv.pyomo.lp' read.
Read time = 0.52 sec. (27.89 ticks)
CPLEX> MIP start file 'C:\Users\llavin\Desktop\test85\logs\tmpjdrg05fx.cplex.mst' read.
CPLEX> Problem name         : C:\Users\llavin\Desktop\test85\logs\tmp5jh0jvtv.pyomo.lp
Objective sense      : Maximize
Variables            :  109219  [Nneg: 1,  Box: 45494,  Free: 8928,
                                 Binary: 54796]
Objective nonzeros   :   18914
Linear constraints   :  246995  [Less: 82866,  Greater: 118424,  Equal: 45705]
  Nonzeros           :  580829
  RHS nonzeros       :  134641

Variables            : Min LB: -5000.000        Max UB: 1000000.       
Objective nonzeros   : Min   : 0.1944444        Max   : 2500.000       
Linear constraints   :
  Nonzeros           : Min   : 0.1944444        Max   : 1000000.       
  RHS nonzeros       : Min   : 0.1944444        Max   : 1000000.       
CPLEX> CPXPARAM_Parallel                                -1
CPXPARAM_DetTimeLimit                            100000
CPXPARAM_MIP_Tolerances_MIPGap                   0.050000000000000003
1 of 1 MIP starts provided solutions.
MIP start 'm1' defined initial solution with objective 0.0000.
Tried aggregator 3 times.
MIP Presolve eliminated 181888 rows and 43049 columns.
MIP Presolve added 6048 rows and 0 columns.
MIP Presolve modified 48954 coefficients.
Aggregator did 25861 substitutions.
Reduced MIP has 45294 rows, 38677 columns, and 125544 nonzeros.
Reduced MIP has 15228 binaries, 0 generals, 0 SOSs, and 0 indicators.
Presolve time = 0.58 sec. (334.24 ticks)
Probing fixed 765 vars, tightened 6857 bounds.
Probing time = 0.36 sec. (13.00 ticks)
Tried aggregator 2 times.
MIP Presolve eliminated 1722 rows and 1530 columns.
MIP Presolve modified 5508 coefficients.
Aggregator did 48 substitutions.
Reduced MIP has 43524 rows, 37099 columns, and 120426 nonzeros.
Reduced MIP has 14463 binaries, 0 generals, 0 SOSs, and 0 indicators.
Presolve time = 0.22 sec. (206.69 ticks)
Probing fixed 0 vars, tightened 220 bounds.
Probing time = 0.52 sec. (13.90 ticks)
Clique table members: 79246.
MIP emphasis: balance optimality and feasibility.
MIP search method: dynamic search.
Parallel mode: opportunistic, using up to 32 threads.
Root relaxation solution time = 0.83 sec. (1579.51 ticks)

        Nodes                                         Cuts/
   Node  Left     Objective  IInf  Best Integer    Best Bound    ItCnt     Gap

*     0+    0                            0.0000   1.10942e+07              --- 
      0     0    14863.7854   392        0.0000    14863.7854     8838     --- 
*     0+    0                            0.0003    14863.7854              --- 
      0     0    13938.3119   428        0.0003    Cuts: 1044     9511     --- 
      0     0    13938.3119   426        0.0003     Cuts: 151     9638     --- 
      0     0    13938.3017   439        0.0003      Cuts: 54     9689     --- 
      0     0    13938.3017   438        0.0003      Cuts: 38     9730     --- 
      0    13    infeasible              0.0003  Impl Bds: 38    10206     --- 
Elapsed time = 9.16 sec. (5563.36 ticks, tree = 0.02 MB, solutions = 2)
    184    85    12869.5877   351        0.0003    13404.9904    12062     --- 
    453   100    12869.5877   343        0.0003    13404.9904    12114     --- 
    858   581    12007.8005   310        0.0003    13404.9904    14688     --- 
   1247   719    10585.1025   262        0.0003    13404.9904    15902     --- 
   1607  1017     8882.2427   244        0.0003    13404.9904    18369     --- 
   1866  1498     9663.7160   234        0.0003    13404.9904    21012     --- 
   2307  1371     9414.7044   273        0.0003    13404.9904    20331     --- 
   2610  1703     8570.0619   198        0.0003    13404.9904    23720     --- 
   2914  1839     2778.1536    93        0.0003    13404.9904    25199     --- 
   4157  2822     4237.6953   161        0.0003    13404.9904    35958     --- 
Elapsed time = 32.72 sec. (8671.43 ticks, tree = 41.14 MB, solutions = 2)
   5279  3859     3908.9238   157        0.0003    13404.9904    44768     --- 
*  5826  3157      integral     0        0.0003        0.0003    62356    0.00%

GUB cover cuts applied:  2
Clique cuts applied:  2
Cover cuts applied:  4
Implied bound cuts applied:  85
Flow cuts applied:  449
Mixed integer rounding cuts applied:  208
Lift and project cuts applied:  30
Gomory fractional cuts applied:  79

Root node processing (before b&c):
  Real time             =    7.31 sec. (5544.01 ticks)
Parallel b&c, 32 threads:
  Real time             =   38.61 sec. (9660.20 ticks)
  Sync time (average)   =    1.34 sec.
  Wait time (average)   =    0.00 sec.
                          ------------
Total (root+branch&cut) =   45.92 sec. (15204.21 ticks)

Solution pool: 2 solutions saved.

MIP - Integer optimal solution:  Objective =  2.7768944678e-04
Solution time =   45.97 sec.  Iterations = 62356  Nodes = 5826
Deterministic time = 15204.52 ticks  (330.76 ticks/sec)

CPLEX> Incumbent solution written to file 'C:\Users\llavin\Desktop\test85\logs\tmp9dmx51zw.cplex.sol'.
CPLEX> Exporting results... 
